param n := 120;
param c := 1000;
param : V : p w :=
   0	  77	 432
   1	  91	 265
   2	  47	 303
   3	  32	 365
   4	  76	 282
   5	   5	 353
   6	  92	 448
   7	  13	 260
   8	  76	 292
   9	  43	 496
  10	  47	 250
  11	  43	 254
  12	  30	 363
  13	  20	 265
  14	  84	 372
  15	  91	 372
  16	  35	 298
  17	  91	 330
  18	   9	 491
  19	  36	 253
  20	  25	 256
  21	  34	 429
  22	  41	 260
  23	  80	 311
  24	  30	 392
  25	  37	 268
  26	  28	 340
  27	  21	 433
  28	  82	 251
  29	  65	 316
  30	  59	 406
  31	  29	 259
  32	 100	 335
  33	  28	 365
  34	  58	 252
  35	  47	 383
  36	  71	 393
  37	  26	 271
  38	  16	 336
  39	  45	 380
  40	  72	 303
  41	   5	 317
  42	  19	 381
  43	  39	 295
  44	  55	 324
  45	  51	 424
  46	  26	 268
  47	   2	 308
  48	  32	 498
  49	  76	 250
  50	  87	 252
  51	   7	 414
  52	  70	 255
  53	  60	 331
  54	  60	 421
  55	  75	 268
  56	  77	 311
  57	  42	 491
  58	  29	 250
  59	  67	 259
  60	  89	 493
  61	  34	 250
  62	  14	 257
  63	  13	 368
  64	  44	 265
  65	  64	 367
  66	  95	 408
  67	  39	 289
  68	  48	 303
  69	  81	 444
  70	  35	 262
  71	  40	 294
  72	  87	 403
  73	  55	 259
  74	  82	 338
  75	   8	 485
  76	  32	 253
  77	  42	 262
  78	  82	 465
  79	  64	 260
  80	  75	 275
  81	  24	 421
  82	   7	 254
  83	  26	 325
  84	  93	 351
  85	   6	 296
  86	  85	 353
  87	  63	 396
  88	  61	 276
  89	  71	 328
  90	   5	 389
  91	  67	 295
  92	  91	 316
  93	  13	 483
  94	  70	 251
  95	   2	 266
  96	 100	 398
  97	  99	 289
  98	  11	 313
  99	   5	 363
 100	  93	 308
 101	  75	 329
 102	  93	 399
 103	  61	 279
 104	  36	 322
 105	  19	 389
 106	  33	 283
 107	  78	 328
 108	  38	 402
 109	  26	 251
 110	  89	 347
 111	  79	 357
 112	  87	 280
 113	  81	 363
 114	  11	 427
 115	   2	 277
 116	  38	 296
 117	   5	 375
 118	  32	 259
 119	  37	 366
;

set E :=
   0	   2
   0	   3
   0	   8
   0	  11
   0	  14
   0	  16
   0	  18
   0	  19
   0	  20
   0	  21
   0	  22
   0	  23
   0	  25
   0	  29
   0	  35
   0	  37
   0	  40
   0	  47
   0	  50
   0	  52
   0	  53
   0	  55
   0	  56
   0	  57
   0	  58
   0	  62
   0	  65
   0	  66
   0	  68
   0	  69
   0	  70
   0	  71
   0	  74
   0	  79
   0	  81
   0	  82
   0	  83
   0	  88
   0	  89
   0	  90
   0	  92
   0	  93
   0	  99
   0	 106
   0	 110
   0	 115
   0	 116
   0	 117
   0	 119
   1	   5
   1	   6
   1	   9
   1	  11
   1	  12
   1	  13
   1	  15
   1	  18
   1	  24
   1	  25
   1	  26
   1	  29
   1	  32
   1	  33
   1	  34
   1	  35
   1	  38
   1	  41
   1	  42
   1	  43
   1	  44
   1	  45
   1	  47
   1	  48
   1	  49
   1	  50
   1	  51
   1	  53
   1	  56
   1	  59
   1	  61
   1	  62
   1	  64
   1	  67
   1	  70
   1	  72
   1	  74
   1	  78
   1	  79
   1	  81
   1	  82
   1	  83
   1	  85
   1	  88
   1	  90
   1	  94
   1	  95
   1	  98
   1	  99
   1	 100
   1	 102
   1	 103
   1	 104
   1	 105
   1	 106
   1	 107
   1	 109
   1	 110
   1	 114
   1	 117
   1	 119
   2	   3
   2	   6
   2	   7
   2	   8
   2	  10
   2	  14
   2	  15
   2	  16
   2	  19
   2	  20
   2	  21
   2	  23
   2	  25
   2	  26
   2	  28
   2	  29
   2	  30
   2	  31
   2	  32
   2	  34
   2	  38
   2	  39
   2	  40
   2	  41
   2	  43
   2	  44
   2	  47
   2	  48
   2	  51
   2	  52
   2	  54
   2	  55
   2	  56
   2	  58
   2	  59
   2	  61
   2	  63
   2	  64
   2	  65
   2	  66
   2	  69
   2	  74
   2	  77
   2	  78
   2	  80
   2	  82
   2	  84
   2	  86
   2	  88
   2	  91
   2	  92
   2	  95
   2	  96
   2	  97
   2	 103
   2	 104
   2	 108
   2	 114
   2	 116
   2	 117
   2	 118
   2	 119
   3	   4
   3	   5
   3	   7
   3	   8
   3	  11
   3	  17
   3	  19
   3	  20
   3	  24
   3	  27
   3	  30
   3	  31
   3	  38
   3	  39
   3	  40
   3	  43
   3	  44
   3	  45
   3	  47
   3	  48
   3	  49
   3	  52
   3	  53
   3	  54
   3	  56
   3	  57
   3	  58
   3	  60
   3	  61
   3	  63
   3	  65
   3	  66
   3	  68
   3	  69
   3	  70
   3	  71
   3	  72
   3	  74
   3	  76
   3	  78
   3	  79
   3	  80
   3	  81
   3	  82
   3	  83
   3	  85
   3	  87
   3	  88
   3	  89
   3	  91
   3	  93
   3	  94
   3	  95
   3	  97
   3	 100
   3	 101
   3	 102
   3	 105
   3	 108
   3	 110
   3	 111
   3	 112
   3	 115
   3	 116
   4	   6
   4	   7
   4	   8
   4	  11
   4	  12
   4	  13
   4	  18
   4	  20
   4	  21
   4	  22
   4	  25
   4	  26
   4	  28
   4	  30
   4	  32
   4	  35
   4	  38
   4	  46
   4	  49
   4	  50
   4	  53
   4	  57
   4	  58
   4	  65
   4	  66
   4	  68
   4	  69
   4	  71
   4	  74
   4	  77
   4	  80
   4	  81
   4	  83
   4	  88
   4	  89
   4	  90
   4	  91
   4	  94
   4	  97
   4	  98
   4	 101
   4	 102
   4	 108
   4	 109
   4	 110
   4	 115
   4	 116
   4	 117
   4	 119
   5	   6
   5	   7
   5	  10
   5	  11
   5	  12
   5	  13
   5	  15
   5	  16
   5	  17
   5	  18
   5	  20
   5	  21
   5	  23
   5	  24
   5	  26
   5	  27
   5	  31
   5	  32
   5	  33
   5	  34
   5	  38
   5	  40
   5	  42
   5	  43
   5	  44
   5	  46
   5	  49
   5	  51
   5	  52
   5	  54
   5	  55
   5	  56
   5	  61
   5	  62
   5	  64
   5	  65
   5	  70
   5	  75
   5	  77
   5	  78
   5	  79
   5	  82
   5	  84
   5	  85
   5	  86
   5	  87
   5	  90
   5	  91
   5	  92
   5	  93
   5	  98
   5	 100
   5	 102
   5	 103
   5	 104
   5	 107
   5	 110
   5	 114
   5	 115
   5	 118
   5	 119
   6	   7
   6	   8
   6	  10
   6	  12
   6	  13
   6	  15
   6	  18
   6	  20
   6	  22
   6	  28
   6	  30
   6	  33
   6	  35
   6	  36
   6	  37
   6	  38
   6	  40
   6	  41
   6	  42
   6	  46
   6	  51
   6	  56
   6	  57
   6	  59
   6	  61
   6	  65
   6	  66
   6	  68
   6	  69
   6	  70
   6	  71
   6	  72
   6	  74
   6	  75
   6	  76
   6	  78
   6	  79
   6	  81
   6	  82
   6	  84
   6	  85
   6	  88
   6	  89
   6	  90
   6	  91
   6	  92
   6	  94
   6	  97
   6	  98
   6	 100
   6	 101
   6	 104
   6	 105
   6	 107
   6	 108
   6	 110
   6	 112
   6	 114
   6	 115
   6	 117
   6	 118
   6	 119
   7	   8
   7	   9
   7	  12
   7	  14
   7	  17
   7	  19
   7	  21
   7	  24
   7	  29
   7	  30
   7	  33
   7	  34
   7	  35
   7	  42
   7	  44
   7	  45
   7	  47
   7	  48
   7	  49
   7	  52
   7	  53
   7	  54
   7	  55
   7	  57
   7	  58
   7	  59
   7	  60
   7	  62
   7	  63
   7	  64
   7	  65
   7	  66
   7	  68
   7	  72
   7	  79
   7	  80
   7	  86
   7	  87
   7	  89
   7	  90
   7	  92
   7	  95
   7	  97
   7	  98
   7	  99
   7	 101
   7	 114
   7	 115
   7	 116
   7	 119
   8	   9
   8	  10
   8	  13
   8	  14
   8	  15
   8	  16
   8	  17
   8	  19
   8	  20
   8	  21
   8	  24
   8	  26
   8	  28
   8	  29
   8	  30
   8	  32
   8	  33
   8	  35
   8	  36
   8	  37
   8	  38
   8	  42
   8	  43
   8	  44
   8	  45
   8	  47
   8	  48
   8	  49
   8	  52
   8	  55
   8	  56
   8	  57
   8	  59
   8	  66
   8	  68
   8	  70
   8	  71
   8	  72
   8	  73
   8	  75
   8	  80
   8	  82
   8	  83
   8	  84
   8	  87
   8	  88
   8	  90
   8	  91
   8	  92
   8	  98
   8	 104
   8	 109
   8	 110
   8	 111
   8	 115
   8	 119
   9	  10
   9	  14
   9	  15
   9	  16
   9	  17
   9	  20
   9	  22
   9	  23
   9	  24
   9	  28
   9	  31
   9	  34
   9	  36
   9	  37
   9	  39
   9	  40
   9	  44
   9	  45
   9	  46
   9	  48
   9	  52
   9	  54
   9	  55
   9	  58
   9	  61
   9	  63
   9	  65
   9	  68
   9	  69
   9	  70
   9	  71
   9	  73
   9	  79
   9	  81
   9	  84
   9	  85
   9	  87
   9	  89
   9	  90
   9	  91
   9	  93
   9	  96
   9	 100
   9	 112
   9	 113
   9	 114
   9	 117
   9	 118
   9	 119
  10	  12
  10	  13
  10	  16
  10	  17
  10	  19
  10	  21
  10	  24
  10	  28
  10	  30
  10	  32
  10	  33
  10	  35
  10	  36
  10	  39
  10	  40
  10	  42
  10	  44
  10	  46
  10	  48
  10	  52
  10	  54
  10	  55
  10	  57
  10	  58
  10	  59
  10	  65
  10	  69
  10	  71
  10	  72
  10	  73
  10	  74
  10	  75
  10	  76
  10	  79
  10	  80
  10	  82
  10	  84
  10	  85
  10	  89
  10	  91
  10	  94
  10	  96
  10	  97
  10	  98
  10	  99
  10	 100
  10	 102
  10	 103
  10	 104
  10	 105
  10	 106
  10	 108
  10	 109
  10	 110
  10	 111
  10	 113
  10	 114
  10	 115
  10	 116
  11	  12
  11	  14
  11	  16
  11	  17
  11	  18
  11	  20
  11	  22
  11	  25
  11	  27
  11	  28
  11	  29
  11	  31
  11	  32
  11	  33
  11	  35
  11	  36
  11	  37
  11	  43
  11	  44
  11	  46
  11	  47
  11	  49
  11	  50
  11	  51
  11	  52
  11	  55
  11	  59
  11	  60
  11	  63
  11	  64
  11	  65
  11	  66
  11	  70
  11	  72
  11	  73
  11	  74
  11	  76
  11	  78
  11	  80
  11	  82
  11	  84
  11	  85
  11	  89
  11	  92
  11	  96
  11	  98
  11	  99
  11	 100
  11	 101
  11	 102
  11	 104
  11	 105
  11	 107
  11	 108
  11	 109
  11	 110
  11	 111
  11	 115
  12	  16
  12	  17
  12	  18
  12	  19
  12	  22
  12	  25
  12	  27
  12	  29
  12	  30
  12	  31
  12	  32
  12	  34
  12	  36
  12	  37
  12	  40
  12	  41
  12	  42
  12	  45
  12	  47
  12	  48
  12	  50
  12	  51
  12	  52
  12	  54
  12	  55
  12	  57
  12	  58
  12	  59
  12	  61
  12	  64
  12	  65
  12	  67
  12	  68
  12	  70
  12	  71
  12	  74
  12	  76
  12	  79
  12	  81
  12	  84
  12	  85
  12	  87
  12	  90
  12	  92
  12	  93
  12	  94
  12	  98
  12	 104
  12	 105
  12	 106
  12	 108
  12	 111
  12	 113
  12	 116
  12	 117
  12	 118
  12	 119
  13	  14
  13	  15
  13	  16
  13	  18
  13	  21
  13	  24
  13	  29
  13	  33
  13	  34
  13	  35
  13	  37
  13	  38
  13	  39
  13	  40
  13	  42
  13	  43
  13	  45
  13	  48
  13	  49
  13	  53
  13	  55
  13	  56
  13	  59
  13	  60
  13	  61
  13	  65
  13	  70
  13	  71
  13	  72
  13	  77
  13	  82
  13	  86
  13	  87
  13	  89
  13	  91
  13	  92
  13	  94
  13	  96
  13	  99
  13	 104
  13	 108
  13	 109
  13	 110
  13	 111
  13	 112
  13	 113
  13	 116
  13	 118
  13	 119
  14	  16
  14	  17
  14	  19
  14	  21
  14	  22
  14	  24
  14	  26
  14	  27
  14	  28
  14	  31
  14	  33
  14	  38
  14	  41
  14	  42
  14	  43
  14	  44
  14	  46
  14	  48
  14	  49
  14	  52
  14	  55
  14	  56
  14	  57
  14	  60
  14	  61
  14	  63
  14	  64
  14	  67
  14	  77
  14	  78
  14	  79
  14	  80
  14	  84
  14	  86
  14	  87
  14	  93
  14	  95
  14	  96
  14	 103
  14	 108
  14	 109
  14	 110
  14	 111
  14	 113
  14	 115
  14	 116
  14	 118
  15	  16
  15	  18
  15	  19
  15	  24
  15	  31
  15	  32
  15	  33
  15	  34
  15	  40
  15	  42
  15	  44
  15	  45
  15	  46
  15	  47
  15	  51
  15	  53
  15	  55
  15	  57
  15	  60
  15	  65
  15	  67
  15	  70
  15	  72
  15	  73
  15	  74
  15	  77
  15	  79
  15	  81
  15	  85
  15	  86
  15	  88
  15	  89
  15	  90
  15	  91
  15	  92
  15	  96
  15	 105
  15	 107
  15	 108
  15	 110
  15	 112
  15	 118
  16	  18
  16	  22
  16	  24
  16	  25
  16	  28
  16	  29
  16	  33
  16	  34
  16	  35
  16	  36
  16	  37
  16	  42
  16	  43
  16	  49
  16	  50
  16	  51
  16	  52
  16	  55
  16	  57
  16	  58
  16	  59
  16	  60
  16	  61
  16	  62
  16	  63
  16	  65
  16	  66
  16	  67
  16	  74
  16	  76
  16	  77
  16	  79
  16	  81
  16	  83
  16	  85
  16	  86
  16	  87
  16	  91
  16	  94
  16	  97
  16	  98
  16	 100
  16	 101
  16	 102
  16	 104
  16	 105
  16	 107
  16	 109
  16	 110
  16	 112
  16	 113
  16	 114
  16	 115
  16	 116
  16	 117
  16	 118
  17	  19
  17	  20
  17	  21
  17	  25
  17	  26
  17	  29
  17	  30
  17	  32
  17	  33
  17	  38
  17	  39
  17	  41
  17	  43
  17	  45
  17	  48
  17	  50
  17	  52
  17	  55
  17	  56
  17	  57
  17	  60
  17	  62
  17	  63
  17	  64
  17	  66
  17	  67
  17	  68
  17	  69
  17	  72
  17	  73
  17	  75
  17	  77
  17	  78
  17	  81
  17	  85
  17	  88
  17	  91
  17	  92
  17	  94
  17	  96
  17	  97
  17	  99
  17	 101
  17	 102
  17	 104
  17	 108
  17	 110
  17	 111
  17	 112
  17	 114
  17	 118
  17	 119
  18	  19
  18	  20
  18	  24
  18	  27
  18	  28
  18	  29
  18	  32
  18	  33
  18	  35
  18	  37
  18	  40
  18	  42
  18	  43
  18	  46
  18	  50
  18	  51
  18	  60
  18	  61
  18	  62
  18	  64
  18	  68
  18	  73
  18	  80
  18	  81
  18	  82
  18	  83
  18	  91
  18	  92
  18	  94
  18	  95
  18	  96
  18	  98
  18	  99
  18	 100
  18	 101
  18	 104
  18	 108
  18	 109
  18	 110
  18	 112
  18	 113
  18	 115
  18	 117
  19	  21
  19	  22
  19	  26
  19	  27
  19	  29
  19	  33
  19	  35
  19	  36
  19	  37
  19	  38
  19	  40
  19	  42
  19	  46
  19	  48
  19	  49
  19	  52
  19	  53
  19	  55
  19	  58
  19	  60
  19	  61
  19	  62
  19	  64
  19	  66
  19	  67
  19	  68
  19	  72
  19	  73
  19	  74
  19	  75
  19	  80
  19	  81
  19	  87
  19	  90
  19	  92
  19	  95
  19	  96
  19	  97
  19	  99
  19	 102
  19	 103
  19	 107
  19	 108
  19	 109
  19	 111
  19	 112
  19	 115
  19	 116
  20	  21
  20	  22
  20	  23
  20	  24
  20	  25
  20	  26
  20	  29
  20	  30
  20	  31
  20	  35
  20	  36
  20	  38
  20	  40
  20	  41
  20	  42
  20	  44
  20	  45
  20	  46
  20	  48
  20	  52
  20	  53
  20	  54
  20	  56
  20	  58
  20	  61
  20	  65
  20	  67
  20	  68
  20	  69
  20	  70
  20	  71
  20	  75
  20	  76
  20	  77
  20	  79
  20	  81
  20	  82
  20	  83
  20	  84
  20	  88
  20	  89
  20	  91
  20	  95
  20	  96
  20	  99
  20	 101
  20	 102
  20	 107
  20	 108
  20	 113
  20	 117
  21	  23
  21	  24
  21	  26
  21	  27
  21	  29
  21	  30
  21	  32
  21	  33
  21	  34
  21	  36
  21	  37
  21	  45
  21	  46
  21	  47
  21	  48
  21	  49
  21	  50
  21	  52
  21	  54
  21	  57
  21	  59
  21	  60
  21	  61
  21	  65
  21	  67
  21	  68
  21	  70
  21	  71
  21	  72
  21	  78
  21	  82
  21	  84
  21	  86
  21	  88
  21	  90
  21	  91
  21	  92
  21	  93
  21	  98
  21	  99
  21	 102
  21	 103
  21	 105
  21	 115
  21	 118
  21	 119
  22	  23
  22	  25
  22	  26
  22	  28
  22	  32
  22	  34
  22	  35
  22	  37
  22	  38
  22	  42
  22	  43
  22	  44
  22	  46
  22	  47
  22	  48
  22	  49
  22	  51
  22	  52
  22	  54
  22	  55
  22	  56
  22	  58
  22	  66
  22	  67
  22	  72
  22	  73
  22	  74
  22	  75
  22	  76
  22	  78
  22	  80
  22	  81
  22	  82
  22	  84
  22	  85
  22	  86
  22	  87
  22	  88
  22	  90
  22	  94
  22	  96
  22	  97
  22	  99
  22	 100
  22	 102
  22	 103
  22	 104
  22	 105
  22	 107
  22	 109
  22	 111
  22	 114
  22	 117
  22	 119
  23	  25
  23	  27
  23	  29
  23	  30
  23	  31
  23	  32
  23	  34
  23	  35
  23	  37
  23	  40
  23	  41
  23	  43
  23	  45
  23	  50
  23	  52
  23	  56
  23	  57
  23	  58
  23	  62
  23	  63
  23	  66
  23	  67
  23	  68
  23	  69
  23	  71
  23	  74
  23	  75
  23	  80
  23	  82
  23	  83
  23	  86
  23	  87
  23	  89
  23	  91
  23	  92
  23	  95
  23	  98
  23	 100
  23	 103
  23	 104
  23	 105
  23	 106
  23	 112
  23	 115
  23	 116
  23	 117
  23	 118
  24	  26
  24	  30
  24	  31
  24	  33
  24	  36
  24	  37
  24	  38
  24	  39
  24	  41
  24	  42
  24	  44
  24	  45
  24	  46
  24	  47
  24	  49
  24	  51
  24	  53
  24	  54
  24	  56
  24	  57
  24	  58
  24	  60
  24	  63
  24	  66
  24	  68
  24	  70
  24	  71
  24	  72
  24	  73
  24	  77
  24	  80
  24	  81
  24	  82
  24	  88
  24	  89
  24	  92
  24	  94
  24	  98
  24	 101
  24	 102
  24	 105
  24	 106
  24	 109
  24	 110
  24	 113
  24	 115
  24	 117
  25	  26
  25	  28
  25	  29
  25	  30
  25	  31
  25	  34
  25	  35
  25	  36
  25	  37
  25	  38
  25	  40
  25	  43
  25	  45
  25	  47
  25	  49
  25	  50
  25	  52
  25	  53
  25	  54
  25	  57
  25	  66
  25	  67
  25	  71
  25	  75
  25	  76
  25	  77
  25	  80
  25	  81
  25	  82
  25	  84
  25	  85
  25	  86
  25	  87
  25	  91
  25	  92
  25	  93
  25	  94
  25	  95
  25	  96
  25	  98
  25	 102
  25	 104
  25	 105
  25	 108
  25	 111
  25	 112
  25	 113
  25	 114
  25	 115
  25	 116
  25	 118
  25	 119
  26	  28
  26	  29
  26	  33
  26	  35
  26	  36
  26	  40
  26	  41
  26	  45
  26	  46
  26	  47
  26	  48
  26	  49
  26	  50
  26	  53
  26	  55
  26	  56
  26	  57
  26	  58
  26	  59
  26	  60
  26	  61
  26	  62
  26	  64
  26	  66
  26	  67
  26	  68
  26	  69
  26	  70
  26	  74
  26	  77
  26	  78
  26	  80
  26	  83
  26	  84
  26	  85
  26	  86
  26	  87
  26	  89
  26	  90
  26	  92
  26	  96
  26	  99
  26	 100
  26	 101
  26	 102
  26	 103
  26	 105
  26	 107
  26	 108
  26	 110
  26	 111
  26	 112
  26	 113
  26	 114
  26	 115
  26	 116
  27	  29
  27	  31
  27	  32
  27	  34
  27	  35
  27	  36
  27	  37
  27	  39
  27	  40
  27	  41
  27	  47
  27	  48
  27	  50
  27	  51
  27	  52
  27	  54
  27	  55
  27	  57
  27	  59
  27	  61
  27	  64
  27	  66
  27	  67
  27	  72
  27	  74
  27	  76
  27	  79
  27	  80
  27	  82
  27	  83
  27	  89
  27	  90
  27	  92
  27	  94
  27	  96
  27	  97
  27	  98
  27	 100
  27	 102
  27	 105
  27	 107
  27	 108
  27	 109
  27	 111
  27	 113
  27	 114
  27	 118
  27	 119
  28	  29
  28	  32
  28	  34
  28	  36
  28	  37
  28	  40
  28	  41
  28	  42
  28	  44
  28	  46
  28	  48
  28	  50
  28	  51
  28	  52
  28	  54
  28	  56
  28	  59
  28	  63
  28	  64
  28	  65
  28	  67
  28	  68
  28	  69
  28	  70
  28	  71
  28	  75
  28	  76
  28	  78
  28	  80
  28	  82
  28	  85
  28	  87
  28	  88
  28	  89
  28	  90
  28	  91
  28	  92
  28	  93
  28	  94
  28	  95
  28	  97
  28	  98
  28	  99
  28	 100
  28	 105
  28	 107
  28	 108
  28	 111
  28	 113
  28	 114
  28	 116
  28	 117
  28	 118
  28	 119
  29	  31
  29	  32
  29	  35
  29	  36
  29	  37
  29	  38
  29	  44
  29	  46
  29	  48
  29	  49
  29	  52
  29	  54
  29	  58
  29	  65
  29	  66
  29	  68
  29	  69
  29	  70
  29	  71
  29	  72
  29	  73
  29	  78
  29	  80
  29	  81
  29	  88
  29	  90
  29	  91
  29	  96
  29	  97
  29	  98
  29	  99
  29	 100
  29	 102
  29	 104
  29	 105
  29	 108
  29	 110
  29	 112
  29	 114
  29	 116
  29	 117
  30	  33
  30	  34
  30	  35
  30	  36
  30	  37
  30	  39
  30	  43
  30	  44
  30	  45
  30	  47
  30	  49
  30	  51
  30	  52
  30	  53
  30	  54
  30	  56
  30	  59
  30	  62
  30	  63
  30	  70
  30	  72
  30	  73
  30	  74
  30	  76
  30	  82
  30	  85
  30	  86
  30	  87
  30	  88
  30	  90
  30	  91
  30	  92
  30	  93
  30	  94
  30	  97
  30	  98
  30	  99
  30	 103
  30	 107
  30	 115
  30	 118
  30	 119
  31	  33
  31	  36
  31	  37
  31	  39
  31	  43
  31	  44
  31	  45
  31	  46
  31	  47
  31	  49
  31	  52
  31	  53
  31	  55
  31	  57
  31	  60
  31	  61
  31	  63
  31	  65
  31	  71
  31	  72
  31	  78
  31	  79
  31	  81
  31	  86
  31	  87
  31	  92
  31	  93
  31	  94
  31	  95
  31	  96
  31	  97
  31	  98
  31	 100
  31	 102
  31	 104
  31	 105
  31	 107
  31	 108
  31	 111
  31	 112
  31	 113
  31	 115
  31	 116
  31	 118
  31	 119
  32	  35
  32	  36
  32	  37
  32	  38
  32	  40
  32	  41
  32	  42
  32	  44
  32	  46
  32	  47
  32	  48
  32	  50
  32	  51
  32	  52
  32	  57
  32	  61
  32	  66
  32	  67
  32	  69
  32	  72
  32	  74
  32	  79
  32	  84
  32	  86
  32	  89
  32	  91
  32	  92
  32	  93
  32	  94
  32	  95
  32	  98
  32	 100
  32	 102
  32	 106
  32	 108
  32	 109
  32	 110
  32	 111
  32	 113
  32	 114
  32	 115
  32	 117
  33	  35
  33	  41
  33	  42
  33	  43
  33	  46
  33	  47
  33	  50
  33	  51
  33	  60
  33	  61
  33	  62
  33	  66
  33	  67
  33	  69
  33	  70
  33	  72
  33	  73
  33	  75
  33	  77
  33	  78
  33	  80
  33	  84
  33	  85
  33	  87
  33	  88
  33	  90
  33	  91
  33	  92
  33	  93
  33	  99
  33	 102
  33	 104
  33	 107
  33	 108
  33	 109
  33	 111
  33	 112
  33	 113
  33	 115
  33	 116
  33	 117
  33	 118
  34	  37
  34	  39
  34	  42
  34	  43
  34	  48
  34	  49
  34	  52
  34	  53
  34	  58
  34	  60
  34	  63
  34	  67
  34	  71
  34	  72
  34	  73
  34	  75
  34	  77
  34	  79
  34	  82
  34	  84
  34	  86
  34	  87
  34	  88
  34	  89
  34	  90
  34	  91
  34	  92
  34	  94
  34	  96
  34	  97
  34	  99
  34	 102
  34	 106
  34	 107
  34	 109
  34	 112
  34	 113
  34	 118
  34	 119
  35	  38
  35	  39
  35	  40
  35	  41
  35	  42
  35	  43
  35	  45
  35	  46
  35	  48
  35	  53
  35	  54
  35	  55
  35	  57
  35	  59
  35	  61
  35	  64
  35	  65
  35	  66
  35	  68
  35	  72
  35	  73
  35	  74
  35	  75
  35	  76
  35	  81
  35	  82
  35	  83
  35	  84
  35	  85
  35	  88
  35	  90
  35	  92
  35	  94
  35	  95
  35	  99
  35	 104
  35	 109
  35	 110
  35	 111
  35	 112
  35	 113
  35	 114
  35	 115
  35	 116
  35	 119
  36	  37
  36	  38
  36	  40
  36	  42
  36	  44
  36	  45
  36	  46
  36	  47
  36	  48
  36	  50
  36	  51
  36	  52
  36	  55
  36	  57
  36	  59
  36	  60
  36	  61
  36	  68
  36	  69
  36	  70
  36	  72
  36	  73
  36	  76
  36	  78
  36	  80
  36	  81
  36	  85
  36	  87
  36	  88
  36	  89
  36	  90
  36	  91
  36	  92
  36	  93
  36	  96
  36	  97
  36	  99
  36	 101
  36	 102
  36	 105
  36	 106
  36	 109
  36	 111
  36	 112
  36	 113
  36	 115
  36	 116
  36	 119
  37	  38
  37	  39
  37	  41
  37	  43
  37	  46
  37	  53
  37	  55
  37	  59
  37	  64
  37	  65
  37	  66
  37	  67
  37	  71
  37	  74
  37	  78
  37	  79
  37	  80
  37	  82
  37	  83
  37	  86
  37	  87
  37	  90
  37	  92
  37	  96
  37	  99
  37	 103
  37	 108
  37	 113
  37	 114
  37	 115
  37	 116
  37	 118
  38	  39
  38	  40
  38	  42
  38	  43
  38	  45
  38	  49
  38	  52
  38	  56
  38	  57
  38	  59
  38	  62
  38	  63
  38	  64
  38	  68
  38	  71
  38	  74
  38	  77
  38	  78
  38	  84
  38	  90
  38	  95
  38	  97
  38	 101
  38	 103
  38	 106
  38	 108
  38	 111
  38	 112
  38	 113
  38	 114
  38	 117
  39	  41
  39	  42
  39	  43
  39	  46
  39	  47
  39	  51
  39	  52
  39	  53
  39	  57
  39	  58
  39	  59
  39	  60
  39	  61
  39	  62
  39	  64
  39	  65
  39	  67
  39	  70
  39	  71
  39	  72
  39	  73
  39	  77
  39	  80
  39	  81
  39	  82
  39	  83
  39	  84
  39	  87
  39	  89
  39	  91
  39	  92
  39	  93
  39	  96
  39	 100
  39	 101
  39	 103
  39	 104
  39	 108
  39	 109
  39	 111
  39	 112
  39	 117
  39	 118
  39	 119
  40	  42
  40	  45
  40	  46
  40	  47
  40	  50
  40	  54
  40	  60
  40	  62
  40	  64
  40	  65
  40	  68
  40	  71
  40	  72
  40	  73
  40	  75
  40	  76
  40	  77
  40	  79
  40	  82
  40	  83
  40	  86
  40	  87
  40	  92
  40	  93
  40	  94
  40	  97
  40	  98
  40	 101
  40	 105
  40	 106
  40	 107
  40	 109
  40	 113
  40	 114
  40	 115
  40	 116
  40	 117
  41	  42
  41	  43
  41	  45
  41	  46
  41	  47
  41	  49
  41	  51
  41	  54
  41	  57
  41	  58
  41	  59
  41	  60
  41	  61
  41	  62
  41	  63
  41	  64
  41	  68
  41	  70
  41	  71
  41	  73
  41	  76
  41	  81
  41	  84
  41	  86
  41	  87
  41	  92
  41	  94
  41	  97
  41	  98
  41	 101
  41	 103
  41	 104
  41	 105
  41	 107
  41	 109
  41	 112
  41	 113
  41	 115
  41	 116
  41	 117
  42	  43
  42	  44
  42	  45
  42	  46
  42	  49
  42	  51
  42	  52
  42	  53
  42	  56
  42	  58
  42	  59
  42	  60
  42	  63
  42	  64
  42	  65
  42	  66
  42	  67
  42	  68
  42	  69
  42	  70
  42	  72
  42	  75
  42	  77
  42	  78
  42	  79
  42	  80
  42	  81
  42	  82
  42	  86
  42	  87
  42	  88
  42	  89
  42	  90
  42	  91
  42	  92
  42	  94
  42	  96
  42	  98
  42	  99
  42	 102
  42	 103
  42	 105
  42	 106
  42	 107
  42	 109
  42	 110
  42	 111
  42	 112
  42	 113
  42	 115
  42	 116
  42	 117
  43	  45
  43	  48
  43	  49
  43	  50
  43	  52
  43	  53
  43	  54
  43	  56
  43	  61
  43	  64
  43	  65
  43	  66
  43	  67
  43	  68
  43	  69
  43	  75
  43	  77
  43	  81
  43	  82
  43	  84
  43	  87
  43	  89
  43	  92
  43	  93
  43	  94
  43	  96
  43	  99
  43	 101
  43	 103
  43	 105
  43	 107
  43	 109
  43	 111
  43	 114
  43	 117
  43	 118
  43	 119
  44	  45
  44	  48
  44	  49
  44	  51
  44	  55
  44	  57
  44	  58
  44	  60
  44	  62
  44	  63
  44	  65
  44	  67
  44	  68
  44	  71
  44	  73
  44	  74
  44	  77
  44	  78
  44	  79
  44	  82
  44	  86
  44	  88
  44	  89
  44	  90
  44	  91
  44	  92
  44	  93
  44	  94
  44	  95
  44	  96
  44	  97
  44	  98
  44	  99
  44	 100
  44	 102
  44	 111
  44	 113
  44	 114
  44	 116
  44	 117
  44	 118
  44	 119
  45	  47
  45	  49
  45	  56
  45	  57
  45	  59
  45	  61
  45	  62
  45	  65
  45	  68
  45	  72
  45	  74
  45	  75
  45	  78
  45	  80
  45	  82
  45	  83
  45	  86
  45	  91
  45	  96
  45	  97
  45	  98
  45	  99
  45	 100
  45	 101
  45	 112
  45	 113
  45	 114
  45	 115
  45	 119
  46	  47
  46	  52
  46	  53
  46	  54
  46	  59
  46	  62
  46	  63
  46	  64
  46	  65
  46	  67
  46	  68
  46	  73
  46	  79
  46	  82
  46	  84
  46	  87
  46	  88
  46	  90
  46	  91
  46	  94
  46	  95
  46	  97
  46	  98
  46	 108
  46	 109
  46	 110
  46	 112
  46	 113
  46	 115
  46	 116
  47	  51
  47	  54
  47	  55
  47	  58
  47	  61
  47	  62
  47	  65
  47	  66
  47	  69
  47	  72
  47	  75
  47	  77
  47	  78
  47	  79
  47	  81
  47	  82
  47	  83
  47	  85
  47	  88
  47	  94
  47	  95
  47	  97
  47	  98
  47	 100
  47	 101
  47	 102
  47	 106
  47	 108
  47	 111
  47	 112
  47	 115
  47	 116
  47	 117
  47	 119
  48	  50
  48	  53
  48	  54
  48	  55
  48	  56
  48	  58
  48	  59
  48	  64
  48	  65
  48	  66
  48	  68
  48	  69
  48	  73
  48	  75
  48	  76
  48	  78
  48	  82
  48	  84
  48	  94
  48	  95
  48	  97
  48	  99
  48	 100
  48	 101
  48	 106
  48	 107
  48	 109
  48	 111
  48	 114
  48	 118
  49	  51
  49	  52
  49	  54
  49	  57
  49	  60
  49	  61
  49	  68
  49	  69
  49	  71
  49	  73
  49	  74
  49	  76
  49	  78
  49	  79
  49	  80
  49	  81
  49	  82
  49	  84
  49	  85
  49	  86
  49	  88
  49	  89
  49	  93
  49	  95
  49	  96
  49	  97
  49	 101
  49	 102
  49	 104
  49	 106
  49	 107
  49	 109
  49	 110
  49	 112
  49	 115
  49	 118
  49	 119
  50	  52
  50	  53
  50	  55
  50	  58
  50	  59
  50	  62
  50	  63
  50	  64
  50	  67
  50	  68
  50	  69
  50	  71
  50	  72
  50	  74
  50	  75
  50	  77
  50	  78
  50	  79
  50	  80
  50	  87
  50	  90
  50	  91
  50	  92
  50	  93
  50	  94
  50	  95
  50	  99
  50	 100
  50	 103
  50	 105
  50	 106
  50	 111
  50	 112
  50	 118
  50	 119
  51	  55
  51	  64
  51	  67
  51	  69
  51	  70
  51	  71
  51	  73
  51	  75
  51	  76
  51	  77
  51	  78
  51	  79
  51	  81
  51	  84
  51	  85
  51	  87
  51	  88
  51	  94
  51	  99
  51	 101
  51	 104
  51	 107
  51	 108
  51	 110
  51	 111
  51	 113
  51	 117
  51	 118
  52	  54
  52	  55
  52	  61
  52	  62
  52	  64
  52	  66
  52	  68
  52	  69
  52	  70
  52	  71
  52	  72
  52	  73
  52	  76
  52	  77
  52	  78
  52	  80
  52	  82
  52	  83
  52	  84
  52	  88
  52	  93
  52	  97
  52	 104
  52	 109
  52	 112
  52	 117
  52	 118
  52	 119
  53	  54
  53	  55
  53	  57
  53	  59
  53	  60
  53	  62
  53	  63
  53	  65
  53	  67
  53	  68
  53	  69
  53	  72
  53	  73
  53	  76
  53	  77
  53	  79
  53	  83
  53	  85
  53	  86
  53	  88
  53	  89
  53	  92
  53	  93
  53	  94
  53	  95
  53	  96
  53	  97
  53	  98
  53	  99
  53	 100
  53	 101
  53	 102
  53	 104
  53	 105
  53	 110
  53	 112
  53	 115
  53	 116
  53	 117
  54	  55
  54	  57
  54	  60
  54	  61
  54	  63
  54	  67
  54	  69
  54	  71
  54	  74
  54	  78
  54	  81
  54	  82
  54	  83
  54	  84
  54	  86
  54	  88
  54	  89
  54	  90
  54	  92
  54	  93
  54	  96
  54	  99
  54	 100
  54	 101
  54	 102
  54	 104
  54	 105
  54	 107
  54	 110
  54	 111
  54	 112
  54	 114
  54	 118
  54	 119
  55	  56
  55	  57
  55	  59
  55	  61
  55	  63
  55	  65
  55	  66
  55	  67
  55	  68
  55	  69
  55	  70
  55	  71
  55	  77
  55	  80
  55	  82
  55	  84
  55	  86
  55	  88
  55	  90
  55	  94
  55	  95
  55	  98
  55	 101
  55	 103
  55	 106
  55	 108
  55	 109
  55	 110
  55	 111
  55	 115
  55	 116
  55	 117
  55	 118
  56	  59
  56	  61
  56	  63
  56	  64
  56	  66
  56	  67
  56	  68
  56	  69
  56	  75
  56	  76
  56	  78
  56	  80
  56	  81
  56	  82
  56	  83
  56	  84
  56	  87
  56	  88
  56	  89
  56	  90
  56	  91
  56	  92
  56	  93
  56	  95
  56	  98
  56	 101
  56	 104
  56	 105
  56	 107
  56	 108
  56	 112
  56	 116
  56	 118
  57	  58
  57	  59
  57	  60
  57	  61
  57	  62
  57	  63
  57	  64
  57	  65
  57	  67
  57	  71
  57	  72
  57	  73
  57	  76
  57	  77
  57	  78
  57	  79
  57	  80
  57	  81
  57	  82
  57	  83
  57	  84
  57	  86
  57	  88
  57	  89
  57	  91
  57	  94
  57	  95
  57	  98
  57	  99
  57	 100
  57	 102
  57	 103
  57	 105
  57	 106
  57	 107
  57	 110
  57	 111
  57	 112
  57	 113
  57	 115
  57	 116
  57	 118
  58	  59
  58	  60
  58	  62
  58	  64
  58	  65
  58	  66
  58	  69
  58	  70
  58	  71
  58	  74
  58	  75
  58	  76
  58	  77
  58	  80
  58	  81
  58	  82
  58	  83
  58	  85
  58	  87
  58	  89
  58	  91
  58	  92
  58	  93
  58	 100
  58	 101
  58	 102
  58	 105
  58	 106
  58	 107
  58	 108
  58	 110
  58	 113
  58	 114
  58	 115
  58	 116
  58	 117
  59	  60
  59	  61
  59	  62
  59	  63
  59	  64
  59	  65
  59	  70
  59	  72
  59	  73
  59	  75
  59	  77
  59	  78
  59	  79
  59	  80
  59	  81
  59	  82
  59	  85
  59	  90
  59	  91
  59	  92
  59	  93
  59	  94
  59	  95
  59	  99
  59	 103
  59	 104
  59	 106
  59	 107
  59	 109
  59	 110
  59	 111
  59	 112
  59	 115
  59	 117
  59	 119
  60	  61
  60	  62
  60	  64
  60	  65
  60	  68
  60	  69
  60	  70
  60	  71
  60	  73
  60	  74
  60	  78
  60	  81
  60	  84
  60	  86
  60	  89
  60	  90
  60	  91
  60	  92
  60	  93
  60	  94
  60	  96
  60	  98
  60	  99
  60	 100
  60	 103
  60	 108
  60	 109
  60	 111
  60	 112
  60	 113
  60	 115
  60	 117
  61	  63
  61	  65
  61	  66
  61	  67
  61	  69
  61	  71
  61	  83
  61	  84
  61	  88
  61	  89
  61	  93
  61	  94
  61	  99
  61	 100
  61	 102
  61	 105
  61	 106
  61	 108
  61	 110
  61	 111
  61	 112
  61	 115
  61	 117
  61	 118
  61	 119
  62	  63
  62	  64
  62	  67
  62	  69
  62	  72
  62	  73
  62	  75
  62	  80
  62	  81
  62	  88
  62	  89
  62	  90
  62	  92
  62	  93
  62	  94
  62	  95
  62	  96
  62	  97
  62	  98
  62	  99
  62	 100
  62	 104
  62	 107
  62	 108
  62	 109
  62	 113
  62	 114
  62	 115
  62	 116
  62	 117
  63	  64
  63	  66
  63	  67
  63	  71
  63	  73
  63	  74
  63	  76
  63	  81
  63	  82
  63	  83
  63	  85
  63	  86
  63	  88
  63	  89
  63	  91
  63	  94
  63	  98
  63	  99
  63	 103
  63	 104
  63	 112
  63	 115
  63	 117
  63	 119
  64	  66
  64	  67
  64	  70
  64	  71
  64	  73
  64	  76
  64	  78
  64	  79
  64	  80
  64	  81
  64	  82
  64	  88
  64	  89
  64	  90
  64	  91
  64	  93
  64	  95
  64	  97
  64	  98
  64	  99
  64	 100
  64	 101
  64	 102
  64	 103
  64	 104
  64	 105
  64	 106
  64	 107
  64	 108
  64	 109
  64	 110
  64	 113
  64	 116
  64	 117
  64	 118
  65	  66
  65	  67
  65	  70
  65	  72
  65	  74
  65	  81
  65	  83
  65	  84
  65	  85
  65	  86
  65	  87
  65	  88
  65	  89
  65	  91
  65	  94
  65	  96
  65	  98
  65	  99
  65	 100
  65	 101
  65	 102
  65	 106
  65	 107
  65	 109
  65	 110
  65	 112
  65	 113
  65	 115
  65	 116
  65	 118
  66	  68
  66	  69
  66	  70
  66	  71
  66	  74
  66	  77
  66	  78
  66	  79
  66	  83
  66	  84
  66	  86
  66	  87
  66	  88
  66	  90
  66	  91
  66	  92
  66	  94
  66	  95
  66	 105
  66	 107
  66	 108
  66	 110
  66	 111
  66	 113
  66	 115
  66	 116
  67	  68
  67	  69
  67	  71
  67	  74
  67	  75
  67	  80
  67	  81
  67	  83
  67	  84
  67	  85
  67	  86
  67	  88
  67	  91
  67	  92
  67	  97
  67	  98
  67	  99
  67	 100
  67	 105
  67	 112
  67	 113
  67	 116
  67	 119
  68	  69
  68	  70
  68	  72
  68	  73
  68	  74
  68	  75
  68	  77
  68	  79
  68	  80
  68	  83
  68	  84
  68	  85
  68	  86
  68	  87
  68	  90
  68	  92
  68	  95
  68	  98
  68	 100
  68	 104
  68	 107
  68	 108
  68	 111
  68	 112
  68	 114
  68	 115
  68	 119
  69	  70
  69	  71
  69	  74
  69	  76
  69	  77
  69	  78
  69	  79
  69	  81
  69	  82
  69	  85
  69	  88
  69	  91
  69	  93
  69	  95
  69	  96
  69	  98
  69	  99
  69	 103
  69	 104
  69	 106
  69	 108
  69	 109
  69	 110
  69	 111
  69	 115
  69	 116
  69	 118
  69	 119
  70	  73
  70	  76
  70	  77
  70	  78
  70	  81
  70	  83
  70	  85
  70	  87
  70	  89
  70	  91
  70	  93
  70	  95
  70	  96
  70	 102
  70	 103
  70	 105
  70	 106
  70	 107
  70	 112
  70	 113
  70	 115
  70	 117
  70	 119
  71	  72
  71	  77
  71	  78
  71	  79
  71	  80
  71	  82
  71	  86
  71	  87
  71	  89
  71	  91
  71	  92
  71	  93
  71	  95
  71	  98
  71	  99
  71	 101
  71	 102
  71	 103
  71	 104
  71	 107
  71	 108
  71	 110
  71	 112
  71	 115
  71	 116
  71	 117
  71	 119
  72	  74
  72	  76
  72	  78
  72	  80
  72	  81
  72	  83
  72	  84
  72	  85
  72	  86
  72	  87
  72	  88
  72	  89
  72	  90
  72	  95
  72	  97
  72	  99
  72	 100
  72	 103
  72	 104
  72	 106
  72	 107
  72	 108
  72	 111
  72	 114
  72	 118
  72	 119
  73	  75
  73	  77
  73	  79
  73	  80
  73	  83
  73	  84
  73	  89
  73	  92
  73	  93
  73	  94
  73	  99
  73	 100
  73	 101
  73	 102
  73	 103
  73	 104
  73	 105
  73	 107
  73	 108
  73	 111
  73	 116
  73	 117
  74	  75
  74	  76
  74	  81
  74	  82
  74	  85
  74	  86
  74	  88
  74	  91
  74	  92
  74	  94
  74	  95
  74	  96
  74	 101
  74	 104
  74	 106
  74	 107
  74	 111
  74	 112
  74	 115
  74	 116
  74	 118
  74	 119
  75	  76
  75	  79
  75	  80
  75	  86
  75	  87
  75	  92
  75	  93
  75	  94
  75	  95
  75	  96
  75	  98
  75	 100
  75	 103
  75	 104
  75	 105
  75	 109
  75	 111
  75	 112
  75	 113
  75	 115
  75	 116
  75	 117
  75	 119
  76	  77
  76	  79
  76	  81
  76	  83
  76	  84
  76	  86
  76	  93
  76	  94
  76	  95
  76	  96
  76	  97
  76	  98
  76	 100
  76	 103
  76	 105
  76	 106
  76	 108
  76	 109
  76	 111
  76	 112
  76	 113
  76	 116
  76	 118
  76	 119
  77	  79
  77	  80
  77	  83
  77	  84
  77	  85
  77	  87
  77	  90
  77	  91
  77	  92
  77	  94
  77	  96
  77	  97
  77	  98
  77	  99
  77	 100
  77	 104
  77	 106
  77	 109
  77	 110
  77	 112
  77	 114
  77	 115
  78	  80
  78	  81
  78	  82
  78	  83
  78	  84
  78	  85
  78	  87
  78	  91
  78	  92
  78	  94
  78	  97
  78	  99
  78	 101
  78	 104
  78	 111
  78	 112
  78	 117
  79	  80
  79	  81
  79	  84
  79	  85
  79	  86
  79	  87
  79	  89
  79	  90
  79	  92
  79	  94
  79	  96
  79	  98
  79	  99
  79	 100
  79	 101
  79	 102
  79	 103
  79	 105
  79	 106
  79	 108
  79	 109
  79	 113
  79	 114
  79	 117
  79	 118
  80	  82
  80	  85
  80	  88
  80	  91
  80	  92
  80	  93
  80	  94
  80	  95
  80	  97
  80	  98
  80	  99
  80	 101
  80	 103
  80	 105
  80	 107
  80	 108
  80	 109
  80	 112
  80	 114
  80	 115
  80	 117
  80	 119
  81	  82
  81	  84
  81	  87
  81	  88
  81	  89
  81	  91
  81	  92
  81	  94
  81	  95
  81	  96
  81	 102
  81	 103
  81	 105
  81	 107
  81	 108
  81	 110
  81	 117
  81	 118
  82	  85
  82	  86
  82	  87
  82	  91
  82	  92
  82	  93
  82	  94
  82	  95
  82	  98
  82	  99
  82	 105
  82	 107
  82	 108
  82	 110
  82	 111
  82	 112
  82	 114
  82	 115
  82	 116
  83	  85
  83	  86
  83	  87
  83	  88
  83	  98
  83	  99
  83	 102
  83	 103
  83	 105
  83	 106
  83	 107
  83	 109
  83	 110
  83	 114
  83	 115
  83	 117
  83	 118
  83	 119
  84	  86
  84	  88
  84	  89
  84	  90
  84	  91
  84	  93
  84	  94
  84	  98
  84	  99
  84	 103
  84	 108
  84	 110
  84	 111
  84	 113
  84	 117
  84	 118
  85	  86
  85	  88
  85	  92
  85	  94
  85	  95
  85	 100
  85	 101
  85	 106
  85	 107
  85	 112
  85	 113
  85	 115
  85	 116
  85	 119
  86	  88
  86	  89
  86	  91
  86	  93
  86	  95
  86	  99
  86	 100
  86	 102
  86	 106
  86	 107
  86	 108
  86	 109
  86	 111
  86	 112
  86	 117
  86	 118
  86	 119
  87	  95
  87	  96
  87	 101
  87	 105
  87	 106
  87	 108
  87	 111
  87	 112
  87	 113
  87	 116
  87	 117
  87	 119
  88	  89
  88	  91
  88	  93
  88	  97
  88	  99
  88	 100
  88	 101
  88	 102
  88	 110
  88	 111
  88	 113
  88	 114
  88	 115
  88	 117
  88	 118
  88	 119
  89	  90
  89	  91
  89	  93
  89	  95
  89	  97
  89	  99
  89	 103
  89	 104
  89	 105
  89	 108
  89	 109
  89	 110
  89	 112
  89	 113
  89	 118
  89	 119
  90	  93
  90	  94
  90	  95
  90	  96
  90	  97
  90	  98
  90	  99
  90	 101
  90	 104
  90	 106
  90	 107
  90	 108
  90	 109
  90	 110
  90	 115
  90	 116
  90	 119
  91	  92
  91	  95
  91	  96
  91	  97
  91	  98
  91	  99
  91	 101
  91	 102
  91	 104
  91	 105
  91	 106
  91	 109
  91	 110
  91	 111
  91	 112
  91	 113
  91	 116
  92	  94
  92	 100
  92	 101
  92	 102
  92	 103
  92	 104
  92	 107
  92	 109
  92	 110
  92	 111
  92	 113
  92	 114
  92	 117
  92	 118
  93	  95
  93	 101
  93	 102
  93	 105
  93	 109
  93	 110
  93	 111
  93	 112
  93	 115
  93	 116
  93	 117
  93	 118
  93	 119
  94	  95
  94	  96
  94	  97
  94	 101
  94	 106
  94	 107
  94	 108
  94	 111
  94	 113
  94	 114
  94	 115
  94	 116
  94	 118
  94	 119
  95	  96
  95	  99
  95	 100
  95	 101
  95	 105
  95	 107
  95	 108
  95	 111
  95	 113
  95	 117
  95	 118
  96	  97
  96	  98
  96	  99
  96	 103
  96	 104
  96	 105
  96	 106
  96	 107
  96	 110
  96	 111
  96	 112
  96	 113
  96	 116
  96	 118
  96	 119
  97	  99
  97	 100
  97	 101
  97	 104
  97	 105
  97	 106
  97	 107
  97	 112
  97	 114
  97	 116
  97	 119
  98	  99
  98	 100
  98	 101
  98	 102
  98	 103
  98	 107
  98	 108
  98	 109
  98	 110
  98	 113
  98	 114
  98	 115
  99	 100
  99	 101
  99	 103
  99	 106
  99	 107
  99	 108
  99	 114
  99	 115
  99	 117
  99	 118
 100	 101
 100	 102
 100	 103
 100	 105
 100	 106
 100	 110
 100	 114
 100	 116
 100	 117
 101	 103
 101	 106
 101	 107
 101	 108
 101	 109
 101	 112
 101	 115
 101	 119
 102	 107
 102	 109
 102	 111
 102	 112
 102	 115
 102	 116
 102	 117
 102	 118
 102	 119
 103	 104
 103	 105
 103	 107
 103	 109
 103	 110
 103	 111
 103	 113
 103	 114
 103	 115
 103	 116
 103	 119
 104	 105
 104	 106
 104	 107
 104	 111
 104	 117
 104	 118
 104	 119
 105	 111
 105	 112
 105	 113
 105	 114
 105	 117
 106	 108
 106	 111
 106	 112
 106	 113
 106	 115
 107	 109
 107	 113
 108	 109
 108	 111
 108	 112
 108	 114
 108	 115
 108	 116
 108	 118
 109	 110
 109	 112
 109	 113
 109	 115
 109	 116
 109	 117
 109	 119
 110	 111
 110	 112
 110	 115
 110	 117
 110	 118
 110	 119
 111	 113
 111	 116
 111	 117
 111	 118
 112	 113
 112	 114
 112	 118
 112	 119
 113	 114
 113	 115
 113	 116
 113	 119
 114	 116
 114	 117
 114	 119
 115	 116
 115	 117
 115	 119
 116	 117
 116	 119
;
